File : Instances/p64
Used 66s
23653

0 0 1 1 0 0 0 1 0 0 1 0 1 0 0 0 0 0 0 0 0 1 0 0 0 0 1 1 1 0 
7 28 21 27 2 12 21 27 27 28 26 28 10 3 28 7 3 10 27 27 27 21 2 2 10 27 27 28 26 2 26 26 26 21 27 12 10 3 27 21 7 26 12 26 3 28 3 21 28 10 27 21 2 21 10 12 7 26 27 7 26 2 7 10 3 12 2 28 28 12 7 12 12 26 10 3 10 10 3 21 10 2 26 7 26 10 26 2 27 7 28 12 7 7 2 3 28 12 2 28 28 21 12 7 26 2 26 27 27 3 26 26 27 12 12 10 28 7 28 3 26 12 28 26 26 21 2 12 26 28 28 21 12 10 10 26 3 3 28 10 12 27 12 12 7 2 27 21 27 7 27 28 10 28 3 28 2 21 3 3 3 27 10 2 10 27 2 26 3 21 3 10 28 10 26 2 27 10 26 10 2 21 2 28 12 26 28 10 27 21 2 21 12 26 7 12 7 21 10 28 
